SCIP version 5.0.0 [precision: 8 byte] [memory: block] [mode: optimized] [LP solver: NONE] [GitHash: 3bbd232]
Copyright (C) 2002-2017 Konrad-Zuse-Zentrum fuer Informationstechnik Berlin (ZIB)

External codes: 
  Readline EditLine w  GNU library for command line editing (gnu.org/s/readline)
  CppAD 20160000.1     Algorithmic Differentiation of C++ algorithms developed by B. Bell (www.coin-or.org/CppAD)
  ZLIB 1.2.5           General purpose compression library by J. Gailly and M. Adler (zlib.net)
  GMP 6.1.2            GNU Multiple Precision Arithmetic Library developed by T. Granlund (gmplib.org)

user parameter file <scip.set> not found - using default parameters

read problem <../../Split_data/output/biodeg/6/1_sample_biodeg.logreg>
============

File name	:	../../Split_data/output/biodeg/6/1_sample_biodeg.logreg
Problem name 	:	1_sample_biodeg
Number of data	:	844
Number of var	:	41
The given data has linear dependence
1 sets of column vector are linearly dependent:
{ 19}, 

[dim=1] time: 0.037222
[dim=2] time: 0.068594
[dim=3] time: 0.106689
[dim=4] time: 0.143553
[dim=5] time: 0.180201
[dim=6] time: 0.210968
[dim=7] time: 0.248844
[dim=8] time: 0.278522
[dim=9] time: 0.307488
[dim=10] time: 0.338722
[dim=11] time: 0.363919
[dim=12] time: 0.389869
[dim=13] time: 0.415135
[dim=14] time: 0.433453
[dim=15] time: 0.452315
[dim=16] time: 0.488898
[dim=17] time: 0.506924
[dim=18] time: 0.524381
[dim=19] time: 0.544646
[dim=20] time: 0.562425
[dim=21] time: 0.580471
[dim=22] time: 0.59787
[dim=23] time: 0.616118
[dim=24] Time of forward = 0.632982sec.
AIC: 537.158
k: 23

[dim=40] time: 0.140773
[dim=39] time: 0.189393
[dim=38] time: 0.245207
[dim=37] time: 0.286289
[dim=36] time: 0.332569
[dim=35] time: 0.369653
[dim=34] time: 0.408587
[dim=33] time: 0.494318
[dim=32] time: 0.542051
[dim=31] time: 0.575435
[dim=30] time: 0.618613
[dim=29] time: 0.648361
[dim=28] time: 0.679456
[dim=27] time: 0.712163
[dim=26] time: 0.747389
[dim=25] time: 0.779899
[dim=24] time: 0.805421
[dim=23] time: 0.836374
[dim=22] Time of backward = 0.856623sec.
AIC: 537.158
k: 23
